c colouring generated by benchmark framework
p edge 450 17425
v 1 3
v 2 14
v 3 7
v 4 15
v 5 27
v 6 2
v 7 22
v 8 17
v 9 27
v 10 0
v 11 26
v 12 14
v 13 28
v 14 1
v 15 4
v 16 13
v 17 9
v 18 10
v 19 8
v 20 10
v 21 24
v 22 9
v 23 18
v 24 17
v 25 28
v 26 13
v 27 15
v 28 12
v 29 9
v 30 11
v 31 25
v 32 12
v 33 9
v 34 17
v 35 17
v 36 18
v 37 25
v 38 6
v 39 23
v 40 1
v 41 19
v 42 15
v 43 7
v 44 6
v 45 3
v 46 26
v 47 3
v 48 7
v 49 17
v 50 23
v 51 7
v 52 6
v 53 27
v 54 13
v 55 21
v 56 2
v 57 16
v 58 28
v 59 2
v 60 23
v 61 29
v 62 11
v 63 2
v 64 14
v 65 2
v 66 19
v 67 16
v 68 13
v 69 5
v 70 11
v 71 1
v 72 26
v 73 19
v 74 6
v 75 25
v 76 0
v 77 8
v 78 25
v 79 9
v 80 6
v 81 27
v 82 16
v 83 25
v 84 20
v 85 22
v 86 10
v 87 4
v 88 14
v 89 1
v 90 3
v 91 1
v 92 21
v 93 20
v 94 29
v 95 18
v 96 24
v 97 5
v 98 1
v 99 21
v 100 18
v 101 9
v 102 3
v 103 1
v 104 0
v 105 6
v 106 19
v 107 27
v 108 10
v 109 27
v 110 17
v 111 6
v 112 15
v 113 13
v 114 27
v 115 4
v 116 0
v 117 9
v 118 24
v 119 23
v 120 26
v 121 24
v 122 25
v 123 27
v 124 22
v 125 3
v 126 12
v 127 12
v 128 7
v 129 0
v 130 16
v 131 1
v 132 2
v 133 11
v 134 3
v 135 25
v 136 0
v 137 16
v 138 8
v 139 5
v 140 17
v 141 24
v 142 9
v 143 13
v 144 7
v 145 11
v 146 23
v 147 14
v 148 11
v 149 9
v 150 4
v 151 24
v 152 3
v 153 12
v 154 20
v 155 12
v 156 18
v 157 28
v 158 11
v 159 19
v 160 26
v 161 25
v 162 5
v 163 5
v 164 8
v 165 2
v 166 12
v 167 14
v 168 2
v 169 14
v 170 27
v 171 22
v 172 7
v 173 17
v 174 21
v 175 19
v 176 12
v 177 29
v 178 27
v 179 13
v 180 7
v 181 4
v 182 6
v 183 17
v 184 0
v 185 23
v 186 3
v 187 1
v 188 5
v 189 3
v 190 15
v 191 21
v 192 28
v 193 12
v 194 8
v 195 10
v 196 4
v 197 19
v 198 26
v 199 14
v 200 5
v 201 4
v 202 19
v 203 17
v 204 0
v 205 28
v 206 2
v 207 2
v 208 22
v 209 5
v 210 2
v 211 18
v 212 16
v 213 10
v 214 3
v 215 12
v 216 9
v 217 9
v 218 24
v 219 21
v 220 8
v 221 3
v 222 6
v 223 17
v 224 21
v 225 17
v 226 7
v 227 19
v 228 10
v 229 28
v 230 2
v 231 7
v 232 17
v 233 3
v 234 17
v 235 18
v 236 1
v 237 0
v 238 12
v 239 15
v 240 4
v 241 2
v 242 0
v 243 24
v 244 11
v 245 11
v 246 8
v 247 5
v 248 18
v 249 14
v 250 3
v 251 7
v 252 22
v 253 16
v 254 5
v 255 16
v 256 16
v 257 22
v 258 5
v 259 24
v 260 18
v 261 18
v 262 20
v 263 27
v 264 1
v 265 21
v 266 9
v 267 16
v 268 14
v 269 23
v 270 7
v 271 15
v 272 6
v 273 18
v 274 12
v 275 26
v 276 14
v 277 7
v 278 2
v 279 0
v 280 4
v 281 16
v 282 0
v 283 26
v 284 20
v 285 11
v 286 4
v 287 20
v 288 7
v 289 19
v 290 1
v 291 19
v 292 20
v 293 15
v 294 20
v 295 10
v 296 17
v 297 24
v 298 6
v 299 6
v 300 13
v 301 19
v 302 2
v 303 18
v 304 0
v 305 11
v 306 3
v 307 6
v 308 20
v 309 8
v 310 21
v 311 4
v 312 8
v 313 16
v 314 22
v 315 0
v 316 9
v 317 13
v 318 26
v 319 18
v 320 21
v 321 25
v 322 22
v 323 1
v 324 23
v 325 23
v 326 22
v 327 5
v 328 26
v 329 3
v 330 11
v 331 20
v 332 22
v 333 17
v 334 12
v 335 24
v 336 23
v 337 16
v 338 12
v 339 0
v 340 15
v 341 19
v 342 1
v 343 28
v 344 8
v 345 22
v 346 8
v 347 9
v 348 5
v 349 15
v 350 15
v 351 25
v 352 5
v 353 10
v 354 4
v 355 26
v 356 20
v 357 10
v 358 1
v 359 4
v 360 17
v 361 18
v 362 27
v 363 22
v 364 20
v 365 15
v 366 13
v 367 28
v 368 10
v 369 13
v 370 2
v 371 26
v 372 24
v 373 10
v 374 24
v 375 1
v 376 15
v 377 23
v 378 21
v 379 2
v 380 21
v 381 13
v 382 7
v 383 15
v 384 9
v 385 14
v 386 4
v 387 16
v 388 26
v 389 23
v 390 8
v 391 25
v 392 15
v 393 9
v 394 21
v 395 20
v 396 10
v 397 6
v 398 8
v 399 2
v 400 28
v 401 10
v 402 0
v 403 15
v 404 0
v 405 9
v 406 23
v 407 14
v 408 1
v 409 1
v 410 24
v 411 19
v 412 3
v 413 16
v 414 12
v 415 22
v 416 13
v 417 2
v 418 19
v 419 0
v 420 1
v 421 18
v 422 6
v 423 11
v 424 23
v 425 25
v 426 20
v 427 22
v 428 26
v 429 0
v 430 6
v 431 8
v 432 6
v 433 22
v 434 17
v 435 14
v 436 23
v 437 10
v 438 20
v 439 12
v 440 4
v 441 15
v 442 0
v 443 13
v 444 21
v 445 3
v 446 0
v 447 12
v 448 21
v 449 16
v 450 5
